0 17 18
1 22 23
2 20 20
3 19 21
4 12 21
5 19 19
6 12 18
7 14 14
8 10 14
9 15 15
10 11 12
11 10 14
12 8 12
13 7 9
14 9 9
15 7 8
16 5 6
17 6 7
18 6 6
19 4 5
20 6 6
21 1 4
22 1 2
23 1 2
24 2 2
25 2 2
26 2 2
27 1 1
28 1 1

